certificates/rado_a11_c97_N22.cnf
c Rad2 upper bound instance: x1 + 11*x2 - x3 = 97, interval [1,22]
p cnf 22 88
1 3 9 0
-1 -3 -9 0
1 10 14 0
-1 -10 -14 0
2 4 9 0
-2 -4 -9 0
2 10 15 0
-2 -10 -15 0
3 5 9 0
-3 -5 -9 0
3 10 16 0
-3 -10 -16 0
4 6 9 0
-4 -6 -9 0
4 10 17 0
-4 -10 -17 0
5 7 9 0
-5 -7 -9 0
5 10 18 0
-5 -10 -18 0
6 8 9 0
-6 -8 -9 0
6 10 19 0
-6 -10 -19 0
7 9 0
-7 -9 0
7 10 20 0
-7 -10 -20 0
8 9 10 0
-8 -9 -10 0
8 10 21 0
-8 -10 -21 0
9 11 0
-9 -11 0
9 10 22 0
-9 -10 -22 0
1 8 10 0
-1 -8 -10 0
9 10 12 0
-9 -10 -12 0
2 8 11 0
-2 -8 -11 0
9 11 13 0
-9 -11 -13 0
3 8 12 0
-3 -8 -12 0
9 12 14 0
-9 -12 -14 0
4 8 13 0
-4 -8 -13 0
9 13 15 0
-9 -13 -15 0
5 8 14 0
-5 -8 -14 0
9 14 16 0
-9 -14 -16 0
6 8 15 0
-6 -8 -15 0
9 15 17 0
-9 -15 -17 0
7 8 16 0
-7 -8 -16 0
9 16 18 0
-9 -16 -18 0
8 17 0
-8 -17 0
9 17 19 0
-9 -17 -19 0
8 9 18 0
-8 -9 -18 0
9 18 20 0
-9 -18 -20 0
8 10 19 0
-8 -10 -19 0
9 19 21 0
-9 -19 -21 0
8 11 20 0
-8 -11 -20 0
9 20 22 0
-9 -20 -22 0
1 7 21 0
-1 -7 -21 0
8 12 21 0
-8 -12 -21 0
2 7 22 0
-2 -7 -22 0
8 13 22 0
-8 -13 -22 0
