certificates/rado_a11_c97_N22.drat
-20 -22 0
d -20 -9 -22 0
10 9 -21 0
9 -21 -22 0
-9 -22 0
10 -22 0
-22 0
9 -10 0
-10 0
9 0
-7 0
-11 0
2 0
20 0
-4 0
-18 0
17 0
5 0
-8 0
-19 0
-15 0
-3 0
21 0
1 0
16 0
0
